###########
# KnapSack problem - data file
# Implementation of the standard Knapsack problem
#
# Author: S. Moret
# Date: 09.03.2021
# Data from: https://github.com/discreteoptimization/assignment/tree/master/knapsack/data
###########

param N := 4;
param W := 11;

param: c w :=
1 14 8
2 12 7
3 6 3
4 10 4
;